NAME: random-34-13573
TYPE: TSP
COMMENT: size=34 seed=13573
DIMENSION: 70
EDGE_WEIGHT_TYPE: EUC_2D
NODE_COORD_SECTION
+0 411 782
-0 411 782
+1 433 619
-1 926 636
+2 539 415
-2 485 195
+3 50 623
-3 476 936
+4 848 429
-4 332 847
+5 717 150
-5 139 645
+6 85 265
-6 271 169
+7 606 456
-7 896 83
+8 762 323
-8 600 324
+9 825 275
-9 970 607
+10 700 664
-10 413 953
+11 484 943
-11 913 967
+12 615 380
-12 832 521
+13 815 955
-13 992 550
+14 911 907
-14 710 585
+15 840 609
-15 48 242
+16 996 281
-16 857 327
+17 636 609
-17 742 302
+18 135 708
-18 715 381
+19 262 815
-19 133 246
+20 850 315
-20 312 505
+21 993 767
-21 341 130
+22 868 934
-22 969 900
+23 57 384
-23 15 464
+24 597 714
-24 189 726
+25 149 884
-25 77 704
+26 859 61
-26 944 625
+27 124 37
-27 308 431
+28 916 692
-28 648 191
+29 670 738
-29 764 886
+30 935 439
-30 482 503
+31 827 466
-31 439 58
+32 53 303
-32 533 195
+33 106 387
-33 799 919
+34 281 682
-34 540 301
PRECEDENCE_SECTION
+0 -0
+1 -1
+2 -2
+3 -3
+4 -4
+5 -5
+6 -6
+7 -7
+8 -8
+9 -9
+10 -10
+11 -11
+12 -12
+13 -13
+14 -14
+15 -15
+16 -16
+17 -17
+18 -18
+19 -19
+20 -20
+21 -21
+22 -22
+23 -23
+24 -24
+25 -25
+26 -26
+27 -27
+28 -28
+29 -29
+30 -30
+31 -31
+32 -32
+33 -33
+34 -34
EOF
